data/evidence/ss_sat/proofs/scaled_cadical_drat/php_6_5.cadical.drat
31 -21 0
31 -26 0
31 -1 0
-31 21 26 1 0
-6 -31 0
-11 -31 0
-16 -31 0
d -31 21 26 1 0
d -6 -21 0
d -11 -21 0
d -16 -21 0
d -6 -26 0
d -11 -26 0
d -16 -26 0
d -1 -6 0
d -1 -11 0
d -1 -16 0
32 -22 0
32 -27 0
32 -2 0
-32 22 27 2 0
-7 -32 0
-12 -32 0
-17 -32 0
d -32 22 27 2 0
d -7 -22 0
d -12 -22 0
d -17 -22 0
d -7 -27 0
d -12 -27 0
d -17 -27 0
d -2 -7 0
d -2 -12 0
d -2 -17 0
33 -23 0
33 -28 0
33 -3 0
-33 23 28 3 0
-8 -33 0
-13 -33 0
-18 -33 0
d -33 23 28 3 0
d -8 -23 0
d -13 -23 0
d -18 -23 0
d -8 -28 0
d -13 -28 0
d -18 -28 0
d -3 -8 0
d -3 -13 0
d -3 -18 0
34 -24 0
34 -29 0
34 -4 0
-34 24 29 4 0
-9 -34 0
-14 -34 0
-19 -34 0
d -34 24 29 4 0
d -9 -24 0
d -14 -24 0
d -19 -24 0
d -9 -29 0
d -14 -29 0
d -19 -29 0
d -4 -9 0
d -4 -14 0
d -4 -19 0
35 -25 0
35 -30 0
35 -5 0
-35 25 30 5 0
-10 -35 0
-15 -35 0
-20 -35 0
d -35 25 30 5 0
d -10 -25 0
d -15 -25 0
d -20 -25 0
d -10 -30 0
d -15 -30 0
d -20 -30 0
d -5 -10 0
d -5 -15 0
d -5 -20 0
-21 2 4 3 5 0
-26 2 4 3 5 0
31 2 4 3 5 0
d 1 2 4 3 5 0
d -1 -21 0
d -1 -26 0
d 31 -1 0
-11 7 8 9 10 0
-16 7 8 9 10 0
-31 7 8 9 10 0
d 7 8 9 6 10 0
d -6 -11 0
d -6 -16 0
d -6 -31 0
-16 13 15 14 12 0
-31 13 15 14 12 0
13 15 14 12 7 8 9 10 0
d 13 15 14 11 12 0
d -11 -16 0
d -11 -31 0
d -11 7 8 9 10 0
-31 20 19 18 17 0
20 19 18 17 7 8 9 10 0
20 19 18 17 13 15 14 12 0
d 20 19 18 16 17 0
d -16 -31 0
d -16 7 8 9 10 0
d -16 13 15 14 12 0
-26 24 25 22 23 0
31 24 25 22 23 0
24 25 22 23 2 4 3 5 0
d 24 25 21 22 23 0
d -21 -26 0
d 31 -21 0
d -21 2 4 3 5 0
31 30 29 28 27 0
30 29 28 27 2 4 3 5 0
30 29 28 27 24 25 22 23 0
d 30 29 28 26 27 0
d 31 -26 0
d -26 2 4 3 5 0
d -26 24 25 22 23 0
-27 -28 -29 -30 0
22 -28 -29 -30 0
-28 -29 -30 0
d 22 -28 -29 -30 0
d -27 -28 -29 -30 0
-31 -32 -34 -35 0
-22 -29 -30 0
-3 -29 -30 0
-31 -29 -30 0
-29 -30 0
d -31 -29 -30 0
d -3 -29 -30 0
d -22 -29 -30 0
d -28 -29 -30 0
-32 -33 7 8 9 -35 0
-33 7 8 9 31 3 -30 0
7 8 9 31 3 22 -30 0
-7 31 3 22 -30 0
-8 31 3 22 -30 0
31 3 22 -30 0
d -8 31 3 22 -30 0
d -7 31 3 22 -30 0
d 8 9 7 31 3 22 -30 0
-33 -9 -31 -35 0
-9 3 22 -30 0
-13 23 3 22 -30 0
-12 23 3 22 -30 0
23 3 22 -30 0
d -12 23 3 22 -30 0
d -13 23 3 22 -30 0
3 22 -30 0
d 23 3 22 -30 0
d -9 3 22 -30 0
d 31 3 22 -30 0
-19 9 22 -30 0
-31 19 9 -33 -35 0
-7 14 19 -33 -35 0
9 22 -30 0
d -19 9 22 -30 0
22 -30 0
d 9 22 -30 0
d 3 22 -30 0
-33 -9 -30 0
-9 -30 0
d -33 -9 -30 0
-18 3 -30 0
19 3 -30 0
3 -30 0
d 19 3 -30 0
d -18 3 -30 0
d 31 8 7 9 -33 3 -30 0
-30 0
-3 34 31 -33 9 0
35 3 4 29 24 31 0
34 12 14 15 -33 9 0
-35 12 14 15 -33 9 0
32 22 3 5 25 31 0
-32 12 14 15 -33 9 0
12 14 15 -33 9 0
d -32 12 14 15 -33 9 0
d -35 12 14 15 -33 9 0
d 34 12 14 15 -33 9 0
-3 31 -12 -33 9 0
-25 31 -12 -33 9 0
31 -12 -33 9 0
d -25 31 -12 -33 9 0
d -3 31 -12 -33 9 0
3 4 29 24 5 25 2 27 22 0
4 22 29 24 5 25 2 27 0
d 3 4 29 24 5 25 2 27 22 0
-12 -33 9 0
d 31 -12 -33 9 0
-31 -32 19 -33 9 0
-32 -14 -33 9 0
25 -14 -33 9 0
-14 -33 9 0
d 25 -14 -33 9 0
d -32 -14 -33 9 0
32 -3 31 25 0
-32 19 -33 9 0
d -31 -32 19 -33 9 0
32 22 31 5 25 0
d 3 32 31 22 25 5 0
32 31 35 0
31 -33 9 0
d -3 34 31 -33 9 0
-33 9 0
d 31 -33 9 0
d -32 19 -33 9 0
d -14 -33 9 0
d -12 -33 9 0
d 14 15 12 -33 9 0
34 32 33 0
29 24 4 32 33 0
-7 -35 -34 -31 0
-35 -34 -31 9 0
4 5 25 2 27 22 33 0
32 -31 9 0
-13 19 -31 9 0
-34 -31 9 0
d -35 -34 -31 9 0
-15 19 -31 9 0
22 5 25 34 33 0
5 25 34 33 0
d 22 5 25 34 33 0
-35 -31 9 0
-31 9 0
d -35 -31 9 0
d -15 19 -31 9 0
d -34 -31 9 0
d -13 19 -31 9 0
d 32 -31 9 0
-2 25 9 0
35 9 0
25 5 9 0
18 -4 9 0
-4 9 0
d 18 -4 9 0
-18 -2 9 0
-2 9 0
d -18 -2 9 0
d -2 25 9 0
-29 12 14 13 18 9 0
12 14 13 18 9 0
d -29 12 14 13 18 9 0
32 9 0
34 9 0
18 7 9 0
7 9 0
d 18 7 9 0
9 0
-14 0
-19 0
-34 0
-24 0
-29 0
-4 0
31 33 0
-18 12 0
32 35 0
-15 18 0
-3 25 31 0
25 13 12 0
13 12 0
d 25 13 12 0
d 13 18 12 14 9 0
12 0
-7 0
-17 0
-32 0
-22 0
-27 0
-2 0
33 0
35 0
-8 0
-13 0
-18 0
-31 0
-10 0
-15 0
-20 0
28 0
-3 0
-23 0
5 0
25 0
0
