data/evidence/ss_sat/proofs/scaled_cadical_lrat/php_6_5.cadical.lrat
82 31 -21 0 0
83 31 -26 0 0
84 31 -1 0 0
85 -31 21 26 1 0 -82 -83 -84 0
86 -6 -31 0 14 15 7 85 0
87 -11 -31 0 17 18 8 85 0
88 -16 -31 0 19 20 9 85 0
88 d 85 14 17 19 15 18 20 7 8 9 0
89 32 -22 0 0
90 32 -27 0 0
91 32 -2 0 0
92 -32 22 27 2 0 -89 -90 -91 0
93 -7 -32 0 29 30 22 92 0
94 -12 -32 0 32 33 23 92 0
95 -17 -32 0 34 35 24 92 0
95 d 92 29 32 34 30 33 35 22 23 24 0
96 33 -23 0 0
97 33 -28 0 0
98 33 -3 0 0
99 -33 23 28 3 0 -96 -97 -98 0
100 -8 -33 0 44 45 37 99 0
101 -13 -33 0 47 48 38 99 0
102 -18 -33 0 49 50 39 99 0
102 d 99 44 47 49 45 48 50 37 38 39 0
103 34 -24 0 0
104 34 -29 0 0
105 34 -4 0 0
106 -34 24 29 4 0 -103 -104 -105 0
107 -9 -34 0 59 60 52 106 0
108 -14 -34 0 62 63 53 106 0
109 -19 -34 0 64 65 54 106 0
109 d 106 59 62 64 60 63 65 52 53 54 0
110 35 -25 0 0
111 35 -30 0 0
112 35 -5 0 0
113 -35 25 30 5 0 -110 -111 -112 0
114 -10 -35 0 74 75 67 113 0
115 -15 -35 0 77 78 68 113 0
116 -20 -35 0 79 80 69 113 0
116 d 113 74 77 79 75 78 80 67 68 69 0
117 -21 2 4 3 5 0 1 10 0
118 -26 2 4 3 5 0 1 11 0
119 31 2 4 3 5 0 1 84 0
119 d 1 10 11 84 0
120 -11 7 8 9 10 0 2 12 0
121 -16 7 8 9 10 0 2 13 0
122 -31 7 8 9 10 0 2 86 0
122 d 2 12 13 86 0
123 -16 13 15 14 12 0 3 16 0
124 -31 13 15 14 12 0 3 87 0
125 13 15 14 12 7 8 9 10 0 120 3 0
125 d 3 16 87 120 0
126 -31 20 19 18 17 0 4 88 0
127 20 19 18 17 7 8 9 10 0 121 4 0
128 20 19 18 17 13 15 14 12 0 123 4 0
128 d 4 88 121 123 0
129 -26 24 25 22 23 0 5 21 0
130 31 24 25 22 23 0 5 82 0
131 24 25 22 23 2 4 3 5 0 117 5 0
131 d 5 21 82 117 0
132 31 30 29 28 27 0 6 83 0
133 30 29 28 27 2 4 3 5 0 118 6 0
134 30 29 28 27 24 25 22 23 0 129 6 0
134 d 6 83 118 129 0
135 -27 -28 -29 -30 0 51 41 66 56 81 71 26 36 131 0
136 22 -28 -29 -30 0 97 102 51 41 104 109 66 56 111 116 81 71 131 130 91 126 95 0
137 -28 -29 -30 0 104 107 56 111 114 71 41 97 100 136 25 89 119 93 122 0
137 d 136 135 0
138 -31 -32 -34 -35 0 95 93 109 107 116 114 122 126 43 0
139 -22 -29 -30 0 104 108 107 56 111 115 114 71 25 89 93 94 138 119 98 100 101 125 0
140 -3 -29 -30 0 139 104 109 107 66 111 116 114 81 40 98 130 100 102 122 126 28 0
141 -31 -29 -30 0 140 139 104 109 107 66 56 111 116 114 81 71 138 91 131 96 100 102 122 126 28 0
142 -29 -30 0 111 115 114 81 71 56 66 104 107 108 139 140 141 119 130 91 96 93 94 100 101 125 0
142 d 141 140 139 137 0
143 -32 -33 7 8 9 -35 0 102 101 116 115 114 94 95 125 127 61 0
144 -33 7 8 9 31 3 -30 0 111 116 115 114 71 101 102 143 91 119 105 108 109 125 127 31 0
145 7 8 9 31 3 22 -30 0 111 116 115 114 81 71 144 96 130 55 103 119 108 109 91 94 95 125 127 46 0
146 -7 31 3 22 -30 0 111 116 115 81 71 27 28 93 91 119 55 105 130 108 109 96 101 102 128 0
147 -8 31 3 22 -30 0 111 116 115 81 71 42 43 100 96 130 55 103 119 108 109 91 94 95 128 0
148 31 3 22 -30 0 111 116 115 81 71 146 147 145 57 58 107 103 105 130 119 96 91 101 102 94 95 128 0
148 d 147 146 145 0
149 -33 -9 -31 -35 0 58 57 116 115 101 102 124 126 31 0
150 -9 3 22 -30 0 148 111 116 115 81 71 57 58 107 103 105 149 96 131 91 94 95 124 126 46 0
151 -13 23 3 22 -30 0 150 148 111 116 114 81 71 42 46 122 28 93 126 91 109 103 105 131 0
152 -12 23 3 22 -30 0 150 148 111 116 114 81 71 27 31 94 122 91 43 126 109 103 105 131 0
153 23 3 22 -30 0 150 148 111 116 115 114 81 71 151 152 124 61 108 103 105 131 91 93 95 122 126 43 0
153 d 152 151 0
154 3 22 -30 0 111 116 115 114 148 150 153 96 100 101 102 122 27 28 124 126 61 0
154 d 153 150 148 0
155 -19 9 22 -30 0 154 98 101 100 40 111 115 114 81 61 109 103 130 122 124 27 0
156 -31 19 9 -33 -35 0 102 100 116 114 122 126 28 0
157 -7 14 19 -33 -35 0 102 101 116 115 27 28 128 0
158 9 22 -30 0 154 98 102 101 100 40 111 116 115 114 81 155 156 130 103 108 157 125 127 31 0
158 d 155 0
159 22 -30 0 111 81 154 40 98 158 107 149 103 130 0
159 d 158 154 0
160 -33 -9 -30 0 58 57 159 89 95 94 111 116 115 101 102 128 0
161 -9 -30 0 159 89 95 94 25 111 116 115 71 57 58 107 105 160 98 119 126 124 46 0
161 d 160 0
162 -18 3 -30 0 161 159 89 94 93 25 111 115 114 71 43 46 125 122 108 119 105 0
163 19 3 -30 0 162 161 159 89 95 94 93 25 111 116 115 114 71 127 126 42 119 128 105 108 0
164 3 -30 0 161 159 89 94 93 25 111 115 114 71 163 61 109 105 119 122 124 42 0
164 d 163 162 144 0
165 -30 0 111 159 89 93 161 164 98 100 143 0
166 -3 34 31 -33 9 0 165 104 103 100 40 41 132 36 90 130 93 143 110 0
167 35 3 4 29 24 31 0 165 110 112 119 25 26 130 132 51 0
168 34 12 14 15 -33 9 0 165 101 124 100 103 104 105 166 167 114 125 93 89 90 91 132 119 51 70 130 0
169 -35 12 14 15 -33 9 0 168 109 101 100 114 157 125 0
170 32 22 3 5 25 31 0 165 90 91 119 55 56 130 132 51 0
171 -32 12 14 15 -33 9 0 168 109 102 101 100 93 95 125 128 73 0
172 12 14 15 -33 9 0 165 101 124 169 110 112 171 89 90 170 40 41 130 132 66 0
172 d 171 169 168 0
173 -3 31 -12 -33 9 0 165 94 90 89 31 27 102 100 40 41 166 132 109 66 130 110 114 116 127 0
174 -25 31 -12 -33 9 0 173 94 91 31 27 102 100 70 110 119 114 116 105 127 109 0
175 31 -12 -33 9 0 165 94 90 89 31 27 102 100 173 174 170 112 114 116 127 109 103 104 130 132 51 0
175 d 174 173 0
176 3 4 29 24 5 25 2 27 22 0 165 131 133 51 0
177 4 22 29 24 5 25 2 27 0 165 176 40 41 134 0
177 d 176 0
178 -12 -33 9 0 102 100 27 31 94 89 90 91 175 122 73 114 126 110 112 109 103 104 105 177 0
178 d 175 0
179 -31 -32 19 -33 9 0 95 93 102 100 122 126 73 0
180 -32 -14 -33 9 0 108 105 104 103 61 100 93 143 179 166 167 0
181 25 -14 -33 9 0 165 180 89 91 90 108 105 104 103 61 177 112 156 130 132 51 0
182 -14 -33 9 0 61 108 105 180 91 181 70 110 156 166 119 0
182 d 181 180 0
183 32 -3 31 25 0 165 41 40 89 90 130 132 66 0
184 -32 19 -33 9 0 178 182 172 76 72 102 100 93 95 127 0
184 d 179 0
185 32 22 31 5 25 0 170 183 0
185 d 170 0
186 32 31 35 0 112 110 89 185 0
187 31 -33 9 0 178 182 172 115 186 184 109 103 104 105 166 167 0
187 d 166 0
188 -33 9 0 100 102 178 182 172 72 76 115 110 112 187 122 28 93 126 89 90 109 103 104 105 177 91 0
188 d 187 184 182 178 172 0
189 34 32 33 0 165 91 90 89 98 97 96 103 104 105 134 133 70 0
190 29 24 4 32 33 0 165 91 90 89 98 97 96 134 133 70 0
191 -7 -35 -34 -31 0 116 115 109 108 27 28 124 126 46 0
192 -35 -34 -31 9 0 109 108 114 115 116 191 122 42 43 124 126 31 0
193 4 5 25 2 27 22 33 0 165 98 97 96 131 133 66 0
194 32 -31 9 0 165 188 97 96 89 90 91 189 192 110 112 193 55 56 134 0
195 -13 19 -31 9 0 194 95 93 42 46 122 126 73 0
196 -34 -31 9 0 194 95 94 93 108 109 195 124 72 76 122 126 43 0
196 d 192 0
197 -15 19 -31 9 0 194 95 93 72 76 122 126 43 0
198 22 5 25 34 33 0 165 105 104 103 98 97 96 134 131 26 0
199 5 25 34 33 0 165 105 104 98 97 198 25 36 133 0
199 d 198 0
200 -35 -31 9 0 194 95 94 93 114 115 116 122 42 43 124 126 61 0
201 -31 9 0 188 196 200 110 112 199 0
201 d 200 197 196 195 194 0
202 -2 25 9 0 165 201 188 97 96 25 26 130 132 66 0
203 35 9 0 165 201 188 98 97 96 110 112 202 119 55 56 130 132 36 0
204 25 5 9 0 165 201 188 98 97 96 202 119 55 56 130 132 36 0
205 18 -4 9 0 165 201 188 97 56 132 90 95 94 93 105 109 108 203 116 115 114 127 128 42 0
206 -4 9 0 165 203 115 114 201 188 97 56 105 132 108 90 93 94 205 43 46 125 0
206 d 205 0
207 -18 -2 9 0 165 201 188 97 26 132 104 108 91 94 93 203 115 114 43 46 125 0
208 -2 9 0 165 203 116 115 114 201 188 97 26 91 132 93 94 95 104 108 109 207 127 128 42 0
208 d 207 202 0
209 -29 12 14 13 18 9 0 206 201 188 98 208 119 70 203 116 115 96 66 104 130 109 89 128 95 0
210 12 14 13 18 9 0 165 206 201 188 98 208 119 70 203 116 115 97 96 209 132 36 90 130 95 103 128 109 0
210 d 209 0
211 32 9 0 165 206 201 188 98 208 119 70 97 96 89 90 130 132 66 0
212 34 9 0 165 206 201 188 98 208 119 70 97 96 103 104 130 132 36 0
213 18 7 9 0 212 109 108 211 95 94 203 116 114 210 127 42 0
214 7 9 0 212 108 211 94 203 115 114 213 43 46 125 0
214 d 213 0
215 9 0 211 214 93 0
216 -14 0 215 57 0
217 -19 0 215 58 0
218 -34 0 215 107 0
219 -24 0 218 103 0
220 -29 0 218 104 0
221 -4 0 218 105 0
222 31 33 0 165 220 221 219 98 97 96 132 26 36 119 130 70 0
223 -18 12 0 216 218 46 102 222 124 115 110 112 199 0
224 32 35 0 219 221 220 112 110 89 90 91 177 0
225 -15 18 0 217 221 219 165 220 76 115 110 224 95 126 167 40 41 130 132 36 0
226 -3 25 31 0 219 165 220 40 41 130 132 36 0
227 25 13 12 0 221 216 217 219 165 220 223 225 124 226 167 116 128 95 89 90 130 132 51 0
228 13 12 0 216 217 165 220 221 223 225 124 227 70 110 116 128 95 90 91 132 119 41 0
228 d 227 210 0
229 12 0 217 218 223 228 101 189 222 95 126 116 110 112 199 0
230 -7 0 229 27 0
231 -17 0 229 31 0
232 -32 0 229 94 0
233 -22 0 232 89 0
234 -27 0 232 90 0
235 -2 0 232 91 0
236 33 0 232 218 189 0
237 35 0 232 224 0
238 -8 0 236 100 0
239 -13 0 236 101 0
240 -18 0 236 102 0
241 -31 0 236 215 237 149 0
242 -10 0 237 114 0
243 -15 0 237 115 0
244 -20 0 237 116 0
245 28 0 241 234 220 165 132 0
246 -3 0 245 41 0
247 -23 0 245 51 0
248 5 0 246 235 241 221 119 0
249 25 0 247 219 233 241 130 0
250 0 248 249 70 0
